NAME: instance_1427
TYPE: TSP
DIMENSION: 20
EDGE_WEIGHT_TYPE: EUC_2D
NODE_COORD_SECTION
0 76.70 36.43
1 80.52 64.99
2 81.04 15.05
3 74.59 46.11
4 80.37 76.50
5 73.17 39.58
6 97.52 22.63
7 25.03 6.08
8 63.79 37.86
9 38.77 98.60
10 3.23 89.40
11 71.13 51.67
12 38.66 77.86
13 75.84 48.20
14 67.90 36.64
15 14.82 95.42
16 50.12 47.82
17 99.40 93.25
18 43.21 75.80
19 48.98 85.16
EOF
